13
0 1 2 3 1 1 1 4 2 1 3 2 3 4 3 2 2 5 4 1 3 4 5 0 6 5 7 4 2 3 2 8 5 7 6 6 8 2 5 2 6 3 8 6 6 4 9 3 9 3 3 7 9 3 9 4 6 5 9 7 1 8 5 6 10 7 7 1 9 0 3 4 6 0 10 7 8 11 5 9 11 12 0 10 0 0 8 4 7 2 4 10 12 12 5 10 9 11 8 9 
